User:   user@ubuntu
Date:   Mon Feb 26 07:36:33 2018
Arch:   x86_64
Pid:    2071
Python: 3.6.3
gpaw:   /usr/lib/python3/dist-packages/gpaw
_gpaw:  /usr/lib/python3/dist-packages/_gpaw.cpython-36m-x86_64-linux-gnu.so
ase:    /home/user/.local/lib/python3.6/site-packages/ase (version 3.15.0)
numpy:  /home/user/.local/lib/python3.6/site-packages/numpy (version 1.14.0)
scipy:  /home/user/.local/lib/python3.6/site-packages/scipy (version 1.0.0)
units:  Angstrom and eV
cores:  1

Input parameters:
  h: 0.18
  xc: PBE

System changes: positions, numbers, cell, pbc, initial_charges, initial_magmoms

Initialize ...

C-setup:
  name: Carbon
  id: 4aa54d4b901d75f77cc0ea3eec22967b
  Z: 6
  valence: 4
  core: 2
  charge: 0.0
  file: /usr/share/gpaw-setups/C.PBE.gz
  cutoffs: 0.64(comp), 1.14(filt), 1.14(core), lmax=2
  valence states:
                energy  radius
    2s(2.00)   -13.751   0.635
    2p(2.00)    -5.284   0.635
    *s          13.461   0.635
    *p          21.927   0.635
    *d           0.000   0.635

  Using partial waves for C as LCAO basis

Reference energy: -65768.199391

Spin-paired calculation

Occupation numbers:
  Fermi-Dirac: width=0.1000 eV

Convergence criteria:
  Maximum total energy change: 0.0005 eV / electron
  Maximum integral of absolute density change: 0.0001 electrons
  Maximum integral of absolute eigenstate change: 4e-08 eV^2
  Maximum number of iterations: 333

Symmetries present (total): 24

  ( 1  0  0)  ( 1  0  0)  ( 1  0  0)  ( 1  0  0)  ( 0  1  0)  ( 0  1  0)
  ( 0  1  0)  ( 0  0  1)  ( 0  0 -1)  ( 0 -1  0)  ( 1  0  0)  ( 0  0  1)
  ( 0  0  1)  ( 0  1  0)  ( 0 -1  0)  ( 0  0 -1)  ( 0  0  1)  ( 1  0  0)

  ( 0  1  0)  ( 0  1  0)  ( 0  0  1)  ( 0  0  1)  ( 0  0  1)  ( 0  0  1)
  ( 0  0 -1)  (-1  0  0)  ( 1  0  0)  ( 0  1  0)  ( 0 -1  0)  (-1  0  0)
  (-1  0  0)  ( 0  0 -1)  ( 0  1  0)  ( 1  0  0)  (-1  0  0)  ( 0 -1  0)

  ( 0  0 -1)  ( 0  0 -1)  ( 0  0 -1)  ( 0  0 -1)  ( 0 -1  0)  ( 0 -1  0)
  ( 1  0  0)  ( 0  1  0)  ( 0 -1  0)  (-1  0  0)  ( 1  0  0)  ( 0  0  1)
  ( 0 -1  0)  (-1  0  0)  ( 1  0  0)  ( 0  1  0)  ( 0  0 -1)  (-1  0  0)

  ( 0 -1  0)  ( 0 -1  0)  (-1  0  0)  (-1  0  0)  (-1  0  0)  (-1  0  0)
  ( 0  0 -1)  (-1  0  0)  ( 0  1  0)  ( 0  0  1)  ( 0  0 -1)  ( 0 -1  0)
  ( 1  0  0)  ( 0  0  1)  ( 0  0 -1)  ( 0 -1  0)  ( 0  1  0)  ( 0  0  1)

1 k-point (Gamma)
1 k-point in the irreducible part of the Brillouin zone
       k-points in crystal coordinates                weights
   0:     0.00000000    0.00000000    0.00000000          1/1

Wave functions: Uniform real-space grid
  Kinetic energy operator: 6*3+1=19 point O(h^6) finite-difference Laplacian
  Eigensolver: None  MatrixOperator buffer_size: default value or
                              see value of nblock in input file
Diagonalizer layout: Serial LAPACKOrthonormalizer layout: Serial LAPACK

Davidson(niter=1, smin=None, normalize=True)

Densities:
  Coarse grid: 40*40*40 grid
  Fine grid: 80*80*80 grid
  Total Charge: 0.000000

Density mixing:
  Method: separate
  Backend: pulay
  Linear mixing parameter: 0.05
  Mixing with 5 old densities
  Damping of long wave oscillations: 50

Hamiltonian:
  XC and Coulomb potentials evaluated on a 80*80*80 grid
  Using the PBE Exchange-Correlation functional
  Interpolation: tri-quintic (5. degree polynomial)
  Poisson solver: Jacobi solver with 5 multi-grid levels
    Coarsest grid: 5 x 5 x 5 points
    Stencil: 6*3+1=19 point O(h^6) finite-difference Laplacian
    Tolerance: 2.000000e-10
    Max iterations: 1000

Total number of cores used: 1

Number of atoms: 64
Number of atomic orbitals: 256
Number of bands in calculation: 256
Bands to converge: occupied states only
Number of valence electrons: 256

... initialized

Initializing position-dependent things.

Density initialized from atomic densities
Creating initial wave functions:
  256 bands from LCAO basis set

   / | C        C      |
  / C|    C  C     C   |
 *   C C   C  C C   C  |
 |C  |C C  C   C C     |
 |   C C C    C C C    |
 | CC|C   C CC C   C   |
 |  CC     C CC     C  |
 C   .CCC-C----CCC-----.
 |C /   CC C     CC   /
 | /CC      CCC      /
 |/   C        C    /
 C--------C--------*

Positions:
   0 C      0.000000    0.000000    0.000000
   1 C      0.892500    0.892500    0.892500
   2 C      0.000000    1.785000    1.785000
   3 C      0.892500    2.677500    2.677500
   4 C      1.785000    0.000000    1.785000
   5 C      2.677500    0.892500    2.677500
   6 C      1.785000    1.785000    0.000000
   7 C      2.677500    2.677500    0.892500
   8 C      0.000000    0.000000    3.570000
   9 C      0.892500    0.892500    4.462500
  10 C      0.000000    1.785000    5.355000
  11 C      0.892500    2.677500    6.247500
  12 C      1.785000    0.000000    5.355000
  13 C      2.677500    0.892500    6.247500
  14 C      1.785000    1.785000    3.570000
  15 C      2.677500    2.677500    4.462500
  16 C      0.000000    3.570000    0.000000
  17 C      0.892500    4.462500    0.892500
  18 C      0.000000    5.355000    1.785000
  19 C      0.892500    6.247500    2.677500
  20 C      1.785000    3.570000    1.785000
  21 C      2.677500    4.462500    2.677500
  22 C      1.785000    5.355000    0.000000
  23 C      2.677500    6.247500    0.892500
  24 C      0.000000    3.570000    3.570000
  25 C      0.892500    4.462500    4.462500
  26 C      0.000000    5.355000    5.355000
  27 C      0.892500    6.247500    6.247500
  28 C      1.785000    3.570000    5.355000
  29 C      2.677500    4.462500    6.247500
  30 C      1.785000    5.355000    3.570000
  31 C      2.677500    6.247500    4.462500
  32 C      3.570000    0.000000    0.000000
  33 C      4.462500    0.892500    0.892500
  34 C      3.570000    1.785000    1.785000
  35 C      4.462500    2.677500    2.677500
  36 C      5.355000    0.000000    1.785000
  37 C      6.247500    0.892500    2.677500
  38 C      5.355000    1.785000    0.000000
  39 C      6.247500    2.677500    0.892500
  40 C      3.570000    0.000000    3.570000
  41 C      4.462500    0.892500    4.462500
  42 C      3.570000    1.785000    5.355000
  43 C      4.462500    2.677500    6.247500
  44 C      5.355000    0.000000    5.355000
  45 C      6.247500    0.892500    6.247500
  46 C      5.355000    1.785000    3.570000
  47 C      6.247500    2.677500    4.462500
  48 C      3.570000    3.570000    0.000000
  49 C      4.462500    4.462500    0.892500
  50 C      3.570000    5.355000    1.785000
  51 C      4.462500    6.247500    2.677500
  52 C      5.355000    3.570000    1.785000
  53 C      6.247500    4.462500    2.677500
  54 C      5.355000    5.355000    0.000000
  55 C      6.247500    6.247500    0.892500
  56 C      3.570000    3.570000    3.570000
  57 C      4.462500    4.462500    4.462500
  58 C      3.570000    5.355000    5.355000
  59 C      4.462500    6.247500    6.247500
  60 C      5.355000    3.570000    5.355000
  61 C      6.247500    4.462500    6.247500
  62 C      5.355000    5.355000    3.570000
  63 C      6.247500    6.247500    4.462500

Unit cell:
           periodic     x           y           z      points  spacing
  1. axis:    yes    7.140000    0.000000    0.000000    40     0.1785
  2. axis:    yes    0.000000    7.140000    0.000000    40     0.1785
  3. axis:    yes    0.000000    0.000000    7.140000    40     0.1785

                     log10-error:    total        iterations:
           time      wfs    density  energy       fermi  poisson
iter:   1  07:38:19  +1.83   +inf  -587.195083    0      17
iter:   2  07:39:04  +0.98   +inf  -592.200507    1
iter:   3  07:39:48  +0.09   +inf  -593.178968    0
iter:   4  07:40:38  -0.11  -0.83  -591.108553    1      8
iter:   5  07:41:28  +0.22  -0.85  -577.089928    17     12
iter:   6  07:42:17  +0.15  -1.51  -576.898839    2      8
iter:   7  07:43:07  -0.47  -1.63  -576.973163    1      6
iter:   8  07:43:56  -0.87  -1.61  -576.468463    3      8
iter:   9  07:44:45  -1.26  -2.08  -576.407076    2      7
iter:  10  07:45:35  -1.50  -2.93  -576.414654    1      5
iter:  11  07:46:23  -2.16  -2.92  -576.418156    1      5
iter:  12  07:47:12  -2.24  -2.92  -576.419067    1      5
iter:  13  07:48:04  -2.48  -2.97  -576.420135    0      4
iter:  14  07:48:58  -2.81  -2.94  -576.420151    1      6
iter:  15  07:49:46  -3.11  -3.50  -576.420109    1      5
iter:  16  07:50:34  -3.29  -3.50  -576.420491    0      4
iter:  17  07:51:23  -3.60  -3.85  -576.421224    1      3
iter:  18  07:52:12  -3.76  -3.92  -576.419964    0      3
iter:  19  07:53:01  -4.04  -4.00  -576.419939    0      3
iter:  20  07:53:50  -4.18  -4.12  -576.420353    0      3
iter:  21  07:54:39  -4.49  -4.16  -576.419963    0      3
iter:  22  07:55:27  -4.61  -4.24  -576.419866    0      3
iter:  23  07:56:16  -4.88  -4.33  -576.419917    0      3
iter:  24  07:57:06  -5.00  -4.53  -576.420602    0      3
iter:  25  07:57:55  -5.27  -4.75  -576.420573    0      3
iter:  26  07:58:44  -5.39  -5.12  -576.421227    0      1
iter:  27  07:59:33  -5.68  -5.14  -576.419958    0      1
iter:  28  08:00:23  -5.80  -5.10  -576.422031    0      1
iter:  29  08:01:13  -6.10  -5.09  -576.419966    0      2
iter:  30  08:02:01  -6.19  -5.09  -576.420110    0      1
iter:  31  08:02:51  -6.50  -5.07  -576.420893    0      1
iter:  32  08:03:40  -6.59  -5.07  -576.419839    0      1
iter:  33  08:04:31  -6.91  -5.06  -576.420877    0      1
iter:  34  08:05:22  -7.02  -5.11  -576.419656    0      1
iter:  35  08:06:10  -7.20  -5.04  -576.420877    0      2
iter:  36  08:07:01  -7.41  -5.08  -576.418649    0      1

Converged after 36 iterations.

Energy contributions relative to reference atoms: (reference = -65768.199391)

Kinetic:       +533.411687
Potential:     -502.312913
External:        +0.000000
XC:            -613.476504
Entropy (-ST):   -0.000000
Local:           +5.959082
Free energy:   -576.418649
Extrapolated:  -576.418649

Fermi level: 14.23007

 Band  Eigenvalues  Occupancy
    0     -9.40245    2.00000
    1     -7.12236    2.00000
    2     -7.12236    2.00000
    3     -7.12236    2.00000
    4     -7.12234    2.00000
    5     -7.12234    2.00000
    6     -7.12234    2.00000
    7     -4.94335    2.00000
    8     -4.94335    2.00000
    9     -4.94335    2.00000
   10     -4.94333    2.00000
   11     -4.94333    2.00000
   12     -4.94333    2.00000
   13     -4.94333    2.00000
   14     -4.94333    2.00000
   15     -4.94333    2.00000
   16     -4.94331    2.00000
   17     -4.94331    2.00000
   18     -4.94331    2.00000
   19     -3.64018    2.00000
   20     -3.64015    2.00000
   21     -3.64015    2.00000
   22     -3.64015    2.00000
   23     -1.30608    2.00000
   24     -1.30608    2.00000
   25     -1.30608    2.00000
   26     -1.30605    2.00000
   27     -0.70416    2.00000
   28     -0.70415    2.00000
   29     -0.70415    2.00000
   30     -0.70415    2.00000
   31     -0.70415    2.00000
   32     -0.70415    2.00000
   33      0.08423    2.00000
   34      0.08423    2.00000
   35      0.08423    2.00000
   36      0.08423    2.00000
   37      0.08423    2.00000
   38      0.08423    2.00000
   39      0.08423    2.00000
   40      0.08423    2.00000
   41      0.08423    2.00000
   42      0.08424    2.00000
   43      0.08424    2.00000
   44      0.08424    2.00000
   45      3.35710    2.00000
   46      3.35710    2.00000
   47      3.35710    2.00000
   48      3.35710    2.00000
   49      3.35710    2.00000
   50      3.35710    2.00000
   51      3.35711    2.00000
   52      3.35711    2.00000
   53      3.35711    2.00000
   54      3.35712    2.00000
   55      3.35712    2.00000
   56      3.35712    2.00000
   57      3.74150    2.00000
   58      3.74150    2.00000
   59      3.74150    2.00000
[...]
  241     25.92605    0.00000
  242     25.92605    0.00000
  243     25.92607    0.00000
  244     25.92607    0.00000
  245     25.92607    0.00000
  246     27.72258    0.00000
  247     27.72258    0.00000
  248     27.72258    0.00000
  249     27.72259    0.00000
  250     28.82526    0.00000
  251     28.82526    0.00000
  252     28.82526    0.00000
  253     28.82526    0.00000
  254     28.82526    0.00000
  255     28.82526    0.00000