User:   user@ubuntu
Date:   Mon Feb 26 07:25:15 2018
Arch:   x86_64
Pid:    1570
Python: 3.6.3
gpaw:   /usr/lib/python3/dist-packages/gpaw
_gpaw:  /usr/lib/python3/dist-packages/_gpaw.cpython-36m-x86_64-linux-gnu.so
ase:    /home/user/.local/lib/python3.6/site-packages/ase (version 3.15.0)
numpy:  /home/user/.local/lib/python3.6/site-packages/numpy (version 1.14.0)
scipy:  /home/user/.local/lib/python3.6/site-packages/scipy (version 1.0.0)
units:  Angstrom and eV
cores:  1

Input parameters:
  h: 0.18
  xc: PBE

System changes: positions, numbers, cell, pbc, initial_charges, initial_magmoms

Initialize ...

C-setup:
  name: Carbon
  id: 4aa54d4b901d75f77cc0ea3eec22967b
  Z: 6
  valence: 4
  core: 2
  charge: 0.0
  file: /usr/share/gpaw-setups/C.PBE.gz
  cutoffs: 0.64(comp), 1.14(filt), 1.14(core), lmax=2
  valence states:
                energy  radius
    2s(2.00)   -13.751   0.635
    2p(2.00)    -5.284   0.635
    *s          13.461   0.635
    *p          21.927   0.635
    *d           0.000   0.635

  Using partial waves for C as LCAO basis

Reference energy: -8221.024924

Spin-paired calculation

Occupation numbers:
  Fermi-Dirac: width=0.1000 eV

Convergence criteria:
  Maximum total energy change: 0.0005 eV / electron
  Maximum integral of absolute density change: 0.0001 electrons
  Maximum integral of absolute eigenstate change: 4e-08 eV^2
  Maximum number of iterations: 333

Symmetries present (total): 24

  ( 1  0  0)  ( 1  0  0)  ( 1  0  0)  ( 1  0  0)  ( 0  1  0)  ( 0  1  0)
  ( 0  1  0)  ( 0  0  1)  ( 0  0 -1)  ( 0 -1  0)  ( 1  0  0)  ( 0  0  1)
  ( 0  0  1)  ( 0  1  0)  ( 0 -1  0)  ( 0  0 -1)  ( 0  0  1)  ( 1  0  0)

  ( 0  1  0)  ( 0  1  0)  ( 0  0  1)  ( 0  0  1)  ( 0  0  1)  ( 0  0  1)
  ( 0  0 -1)  (-1  0  0)  ( 1  0  0)  ( 0  1  0)  ( 0 -1  0)  (-1  0  0)
  (-1  0  0)  ( 0  0 -1)  ( 0  1  0)  ( 1  0  0)  (-1  0  0)  ( 0 -1  0)

  ( 0  0 -1)  ( 0  0 -1)  ( 0  0 -1)  ( 0  0 -1)  ( 0 -1  0)  ( 0 -1  0)
  ( 1  0  0)  ( 0  1  0)  ( 0 -1  0)  (-1  0  0)  ( 1  0  0)  ( 0  0  1)
  ( 0 -1  0)  (-1  0  0)  ( 1  0  0)  ( 0  1  0)  ( 0  0 -1)  (-1  0  0)

  ( 0 -1  0)  ( 0 -1  0)  (-1  0  0)  (-1  0  0)  (-1  0  0)  (-1  0  0)
  ( 0  0 -1)  (-1  0  0)  ( 0  1  0)  ( 0  0  1)  ( 0  0 -1)  ( 0 -1  0)
  ( 1  0  0)  ( 0  0  1)  ( 0  0 -1)  ( 0 -1  0)  ( 0  1  0)  ( 0  0  1)

1 k-point (Gamma)
1 k-point in the irreducible part of the Brillouin zone
       k-points in crystal coordinates                weights
   0:     0.00000000    0.00000000    0.00000000          1/1

Wave functions: Uniform real-space grid
  Kinetic energy operator: 6*3+1=19 point O(h^6) finite-difference Laplacian
  Eigensolver: None  MatrixOperator buffer_size: default value or
                              see value of nblock in input file
Diagonalizer layout: Serial LAPACKOrthonormalizer layout: Serial LAPACK

Davidson(niter=1, smin=None, normalize=True)

Densities:
  Coarse grid: 20*20*20 grid
  Fine grid: 40*40*40 grid
  Total Charge: 0.000000

Density mixing:
  Method: separate
  Backend: pulay
  Linear mixing parameter: 0.05
  Mixing with 5 old densities
  Damping of long wave oscillations: 50

Hamiltonian:
  XC and Coulomb potentials evaluated on a 40*40*40 grid
  Using the PBE Exchange-Correlation functional
  Interpolation: tri-quintic (5. degree polynomial)
  Poisson solver: Jacobi solver with 4 multi-grid levels
    Coarsest grid: 5 x 5 x 5 points
    Stencil: 6*3+1=19 point O(h^6) finite-difference Laplacian
    Tolerance: 2.000000e-10
    Max iterations: 1000

Total number of cores used: 1

Number of atoms: 8
Number of atomic orbitals: 32
Number of bands in calculation: 32
Bands to converge: occupied states only
Number of valence electrons: 32

... initialized

Initializing position-dependent things.

Density initialized from atomic densities
Creating initial wave functions:
  32 bands from LCAO basis set

 * | C      |
 |C|    C   |
 | .-C---C--.
 |/ C  C   /
 C--------*

Positions:
   0 C      0.000000    0.000000    0.000000
   1 C      0.892500    0.892500    0.892500
   2 C      0.000000    1.785000    1.785000
   3 C      0.892500    2.677500    2.677500
   4 C      1.785000    0.000000    1.785000
   5 C      2.677500    0.892500    2.677500
   6 C      1.785000    1.785000    0.000000
   7 C      2.677500    2.677500    0.892500

Unit cell:
           periodic     x           y           z      points  spacing
  1. axis:    yes    3.570000    0.000000    0.000000    20     0.1785
  2. axis:    yes    0.000000    3.570000    0.000000    20     0.1785
  3. axis:    yes    0.000000    0.000000    3.570000    20     0.1785

                     log10-error:    total        iterations:
           time      wfs    density  energy       fermi  poisson
iter:   1  07:25:20  +1.83   +inf   -59.913523    0      16
iter:   2  07:25:20  +0.97   +inf   -60.510393    0
iter:   3  07:25:20  +0.07   +inf   -60.623092    0
iter:   4  07:25:21  -0.11  -0.74   -60.177067    0      7
iter:   5  07:25:22  +0.42  -0.77   -57.261032    16     11
iter:   6  07:25:22  +0.27  -1.46   -57.228106    3      7
iter:   7  07:25:23  -0.38  -1.60   -57.242157    1      3
iter:   8  07:25:24  -0.77  -1.58   -57.276328    1      6
iter:   9  07:25:24  -0.93  -1.54   -57.288065    0      8
iter:  10  07:25:25  -1.24  -1.53   -57.311030    1      7
iter:  11  07:25:25  -0.96  -1.48   -57.175800    3      9
iter:  12  07:25:26  -1.20  -2.08   -57.180222    1      5
iter:  13  07:25:27  -1.45  -2.05   -57.185735    2      7
iter:  14  07:25:27  -1.37  -1.99   -57.176850    1      8
iter:  15  07:25:28  -2.00  -2.49   -57.177951    0      4
iter:  16  07:25:29  -2.32  -2.42   -57.176830    1      6
iter:  17  07:25:29  -2.48  -2.48   -57.177795    1      5
iter:  18  07:25:30  -2.69  -2.42   -57.176520    1      6
iter:  19  07:25:31  -2.90  -2.87   -57.176601    0      6
iter:  20  07:25:31  -3.28  -3.08   -57.176606    0      4
iter:  21  07:25:32  -3.83  -3.29   -57.176710    0      4
iter:  22  07:25:32  -3.92  -3.45   -57.176521    0      3
iter:  23  07:25:33  -4.51  -3.51   -57.176564    0      3
iter:  24  07:25:34  -4.64  -3.54   -57.176748    0      4
iter:  25  07:25:34  -4.87  -3.77   -57.176669    0      3
iter:  26  07:25:35  -5.30  -3.82   -57.176728    0      2
iter:  27  07:25:35  -5.31  -3.87   -57.176802    0      3
iter:  28  07:25:36  -5.27  -4.13   -57.176913    0      2
iter:  29  07:25:37  -5.69  -4.15   -57.176521    0      2
iter:  30  07:25:37  -5.78  -4.29   -57.176704    0      2
iter:  31  07:25:38  -5.89  -4.44   -57.176671    0      1
iter:  32  07:25:38  -6.29  -4.47   -57.176677    0      1
iter:  33  07:25:39  -6.42  -4.50   -57.176741    0      2
iter:  34  07:25:39  -6.66  -4.86   -57.176779    0      1
iter:  35  07:25:40  -6.94  -4.91   -57.176821    0      1
iter:  36  07:25:41  -7.08  -4.97   -57.176787    0      1
iter:  37  07:25:41  -7.41  -5.06   -57.176719    0      1

Converged after 37 iterations.

Energy contributions relative to reference atoms: (reference = -8221.024924)

Kinetic:        +87.616662
Potential:      -65.210531
External:        +0.000000
XC:             -80.358096
Entropy (-ST):   -0.000000
Local:           +0.775245
Free energy:    -57.176719
Extrapolated:   -57.176719

Fermi level: 14.70536

 Band  Eigenvalues  Occupancy
    0     -9.15186    2.00000
    1     -0.40746    2.00000
    2     -0.40746    2.00000
    3     -0.40745    2.00000
    4     -0.40745    2.00000
    5     -0.40745    2.00000
    6     -0.40741    2.00000
    7      6.07960    2.00000
    8      6.07960    2.00000
    9      6.07960    2.00000
   10      6.07963    2.00000
   11      6.07963    2.00000
   12      6.07963    2.00000
   13     12.45586    2.00000
   14     12.45586    2.00000
   15     12.45586    2.00000
   16     17.02716    0.00000
   17     17.02716    0.00000
   18     17.02717    0.00000
   19     17.02717    0.00000
   20     17.02717    0.00000
   21     17.02717    0.00000
   22     17.93809    0.00000
   23     17.93809    0.00000
   24     17.93809    0.00000
   25     25.73746    0.00000
   26     29.28068    0.00000
   27     29.28068    0.00000
   28     29.28068    0.00000
   29     29.28071    0.00000
   30     29.28071    0.00000
   31     29.28071    0.00000