User:   vladislav@vladislav-ThinkPad-T530
Date:   Tue Mar  6 17:17:29 2018
Arch:   x86_64
Pid:    1096
Python: 2.7.14
gpaw:   /home/vladislav/.local/lib/python2.7/site-packages/gpaw
_gpaw:  /home/vladislav/.local/lib/python2.7/site-packages/_gpaw.so
ase:    /home/vladislav/.local/lib/python2.7/site-packages/ase (version 3.13.0)
numpy:  /usr/lib/python2.7/dist-packages/numpy (version 1.12.1)
scipy:  /usr/lib/python2.7/dist-packages/scipy (version 0.18.1)
units:  Angstrom and eV
cores:  1

Input parameters:
  basis: dzp
  kpts: [8 8 8]
  mode: lcao

System changes: positions, numbers, cell, pbc, initial_charges, initial_magmoms

Initialize ...

Cu-setup:
  name: Copper
  id: 0f0e166f2a1531348bd10bcfa07bef11
  Z: 29
  valence: 11
  core: 18
  charge: 0.0
  file: /home/vladislav/gpaw-data/gpaw-setups-0.9.20000/Cu.LDA.gz
  cutoffs: 1.06(comp), 2.06(filt), 2.43(core), lmax=2
  valence states:
                energy  radius
    4s(1.00)    -4.857   1.164
    4p(0.00)    -0.783   1.164
    3d(10.00)    -5.324   1.058
    *s          22.354   1.164
    *p          26.429   1.164
    *d          21.887   1.058

  LCAO basis set for Cu:
    Name: dzp
    File: /home/vladislav/gpaw-data/gpaw-setups-0.9.20000/Cu.dzp.basis.gz
    Number of radial functions: 5
    Number of spherical harmonics: 15
      l=0, rc=8.9688 Bohr: 4s-sz confined orbital
      l=2, rc=5.1719 Bohr: 3d-sz confined orbital
      l=0, rc=5.3281 Bohr: 4s-dz split-valence wave
      l=2, rc=3.1406 Bohr: 3d-dz split-valence wave
      l=1, rc=8.9688 Bohr: p-type Gaussian polarization

Reference energy: -179804.388190

Spin-paired calculation

Occupation numbers:
  Fermi-Dirac: width=0.1000 eV

Convergence criteria:
  Maximum total energy change: 0.0005 eV / electron
  Maximum integral of absolute density change: 0.0001 electrons
  Maximum integral of absolute eigenstate change: 4e-08 eV^2
  Maximum number of iterations: 333

Symmetries present (total): 48

  ( 1  0  0)  ( 1  0  0)  ( 1  0  0)  ( 1  0  0)  ( 1  0  0)  ( 1  0  0)
  ( 0  1  0)  ( 0  1  0)  ( 0  0  1)  ( 0  0  1)  ( 0  0 -1)  ( 0  0 -1)
  ( 0  0  1)  ( 0  0 -1)  ( 0  1  0)  ( 0 -1  0)  ( 0  1  0)  ( 0 -1  0)

  ( 1  0  0)  ( 1  0  0)  ( 0  1  0)  ( 0  1  0)  ( 0  1  0)  ( 0  1  0)
  ( 0 -1  0)  ( 0 -1  0)  ( 1  0  0)  ( 1  0  0)  ( 0  0  1)  ( 0  0  1)
  ( 0  0  1)  ( 0  0 -1)  ( 0  0  1)  ( 0  0 -1)  ( 1  0  0)  (-1  0  0)

  ( 0  1  0)  ( 0  1  0)  ( 0  1  0)  ( 0  1  0)  ( 0  0  1)  ( 0  0  1)
  ( 0  0 -1)  ( 0  0 -1)  (-1  0  0)  (-1  0  0)  ( 1  0  0)  ( 1  0  0)
  ( 1  0  0)  (-1  0  0)  ( 0  0  1)  ( 0  0 -1)  ( 0  1  0)  ( 0 -1  0)

  ( 0  0  1)  ( 0  0  1)  ( 0  0  1)  ( 0  0  1)  ( 0  0  1)  ( 0  0  1)
  ( 0  1  0)  ( 0  1  0)  ( 0 -1  0)  ( 0 -1  0)  (-1  0  0)  (-1  0  0)
  ( 1  0  0)  (-1  0  0)  ( 1  0  0)  (-1  0  0)  ( 0  1  0)  ( 0 -1  0)

  ( 0  0 -1)  ( 0  0 -1)  ( 0  0 -1)  ( 0  0 -1)  ( 0  0 -1)  ( 0  0 -1)
  ( 1  0  0)  ( 1  0  0)  ( 0  1  0)  ( 0  1  0)  ( 0 -1  0)  ( 0 -1  0)
  ( 0  1  0)  ( 0 -1  0)  ( 1  0  0)  (-1  0  0)  ( 1  0  0)  (-1  0  0)

  ( 0  0 -1)  ( 0  0 -1)  ( 0 -1  0)  ( 0 -1  0)  ( 0 -1  0)  ( 0 -1  0)
  (-1  0  0)  (-1  0  0)  ( 1  0  0)  ( 1  0  0)  ( 0  0  1)  ( 0  0  1)
  ( 0  1  0)  ( 0 -1  0)  ( 0  0  1)  ( 0  0 -1)  ( 1  0  0)  (-1  0  0)

  ( 0 -1  0)  ( 0 -1  0)  ( 0 -1  0)  ( 0 -1  0)  (-1  0  0)  (-1  0  0)
  ( 0  0 -1)  ( 0  0 -1)  (-1  0  0)  (-1  0  0)  ( 0  1  0)  ( 0  1  0)
  ( 1  0  0)  (-1  0  0)  ( 0  0  1)  ( 0  0 -1)  ( 0  0  1)  ( 0  0 -1)

  (-1  0  0)  (-1  0  0)  (-1  0  0)  (-1  0  0)  (-1  0  0)  (-1  0  0)
  ( 0  0  1)  ( 0  0  1)  ( 0  0 -1)  ( 0  0 -1)  ( 0 -1  0)  ( 0 -1  0)
  ( 0  1  0)  ( 0 -1  0)  ( 0  1  0)  ( 0 -1  0)  ( 0  0  1)  ( 0  0 -1)

512 k-points: 8 x 8 x 8 Monkhorst-Pack grid
20 k-points in the irreducible part of the Brillouin zone
       k-points in crystal coordinates                weights
   0:     0.06250000    0.06250000    0.06250000          8/512
   1:     0.18750000    0.06250000    0.06250000         24/512
   2:     0.18750000    0.18750000    0.06250000         24/512
   3:     0.18750000    0.18750000    0.18750000          8/512
   4:     0.31250000    0.06250000    0.06250000         24/512
   5:     0.31250000    0.18750000    0.06250000         48/512
   6:     0.31250000    0.18750000    0.18750000         24/512
   7:     0.31250000    0.31250000    0.06250000         24/512
   8:     0.31250000    0.31250000    0.18750000         24/512
   9:     0.31250000    0.31250000    0.31250000          8/512
          ...
  19:     0.43750000    0.43750000    0.43750000          8/512

Wave functions: LCAO
  Diagonalizer: Serial LAPACK
  Atomic Correction: dense with blas
  Datatype: complex
  Eigensolver: None

LCAO using direct dense diagonalizer

Densities:
  Coarse grid: 20*20*20 grid
  Fine grid: 40*40*40 grid
  Total Charge: 0.000000

Density mixing:
  Method: separate
  Backend: pulay
  Linear mixing parameter: 0.05
  Mixing with 5 old densities
  Damping of long wave oscillations: 50

Hamiltonian:
  XC and Coulomb potentials evaluated on a 40*40*40 grid
  Using the LDA Exchange-Correlation functional
  Interpolation: tri-quintic (5. degree polynomial)
  Poisson solver: Jacobi solver with 4 multi-grid levels
    Coarsest grid: 5 x 5 x 5 points
    Stencil: 6*3+1=19 point O(h^6) finite-difference Laplacian
    Tolerance: 2.000000e-10
    Max iterations: 1000

Total number of cores used: 1

Number of atoms: 4
Number of atomic orbitals: 60
Number of bands in calculation: 36
Bands to converge: occupied states only
Number of valence electrons: 44

... initialized

Initializing position-dependent things.

Density initialized from atomic densities
 |Cu        |
 | .-Cu-----.
 |/   Cu   /
 Cu-------*

Positions:
   0 Cu     0.000000    0.000000    0.000000
   1 Cu     0.000000    1.800000    1.800000
   2 Cu     1.800000    0.000000    1.800000
   3 Cu     1.800000    1.800000    0.000000

Unit cell:
           periodic     x           y           z      points  spacing
  1. axis:    yes    3.600000    0.000000    0.000000    20     0.1800
  2. axis:    yes    0.000000    3.600000    0.000000    20     0.1800
  3. axis:    yes    0.000000    0.000000    3.600000    20     0.1800

                     log10-error:    total        iterations:
           time      wfs    density  energy       fermi  poisson
iter:   1  17:17:32          +inf   -23.425161    3      11
iter:   2  17:17:48         -1.11   -21.523252    28     7
iter:   3  17:18:04         -1.20   -18.021554    32     8
iter:   4  17:18:20         -1.92   -18.588204    29     7
iter:   5  17:18:36         -1.63   -17.916158    28     7
iter:   6  17:18:52         -2.57   -17.916736    2      3
iter:   7  17:19:08         -2.56   -17.908639    3      5
iter:   8  17:19:24         -3.20   -17.908292    3      5
iter:   9  17:19:39         -4.60   -17.908447    2      2

Converged after 9 iterations.

Energy contributions relative to reference atoms: (reference = -179804.388190)

Kinetic:        -84.436399
Potential:      +72.595795
External:        +0.000000
XC:              -6.184763
Entropy (-ST):   -0.041490
Local:           +0.137664
Free energy:    -17.929193
Extrapolated:   -17.908447

Fermi level: 7.73857

Warning: Showing only first 2 kpts
 Kpt  Band  Eigenvalues  Occupancy
  0    20      6.13620    0.03125
  0    21      9.59679    0.00000
  0    22      9.59679    0.00000
  0    23      9.59679    0.00000

  1    20      6.12701    0.09375
  1    21      7.65690    0.06502
  1    22     10.32905    0.00000
  1    23     10.32905    0.00000