User:   user@ubuntu
Date:   Mon Mar  5 08:15:29 2018
Arch:   x86_64
Pid:    11520
Python: 3.6.3
gpaw:   /usr/lib/python3/dist-packages/gpaw
_gpaw:  /usr/lib/python3/dist-packages/_gpaw.cpython-36m-x86_64-linux-gnu.so
ase:    /home/user/.local/lib/python3.6/site-packages/ase (version 3.15.0)
numpy:  /home/user/.local/lib/python3.6/site-packages/numpy (version 1.14.0)
scipy:  /home/user/.local/lib/python3.6/site-packages/scipy (version 1.0.0)
units:  Angstrom and eV
cores:  1

Input parameters:
  basis: dzp
  kpts: [16 16 16]
  mode: lcao

System changes: positions, numbers, cell, pbc, initial_charges, initial_magmoms

Initialize ...

C-setup:
  name: Carbon
  id: d60576a1f549371a163e72552ca58787
  Z: 6
  valence: 4
  core: 2
  charge: 0.0
  file: /usr/share/gpaw-setups/C.LDA.gz
  cutoffs: 0.64(comp), 1.14(filt), 1.14(core), lmax=2
  valence states:
                energy  radius
    2s(2.00)   -13.639   0.635
    2p(2.00)    -5.414   0.635
    *s          13.573   0.635
    *p          21.797   0.635
    *d           0.000   0.635

  LCAO basis set for C:
    Name: dzp
    File: /usr/share/gpaw-setups/C.dzp.basis.gz
    Number of radial functions: 5
    Number of spherical harmonics: 13
      l=0, rc=5.5469 Bohr: 2s-sz confined orbital
      l=1, rc=6.6719 Bohr: 2p-sz confined orbital
      l=0, rc=3.0312 Bohr: 2s-dz split-valence wave
      l=1, rc=3.7500 Bohr: 2p-dz split-valence wave
      l=2, rc=6.6719 Bohr: d-type Gaussian polarization

Reference energy: -2037.605076

Spin-paired calculation

Occupation numbers:
  Fermi-Dirac: width=0.1000 eV

Convergence criteria:
  Maximum total energy change: 0.0005 eV / electron
  Maximum integral of absolute density change: 0.0001 electrons
  Maximum integral of absolute eigenstate change: 4e-08 eV^2
  Maximum number of iterations: 333

Symmetries present (total): 12

  ( 1  1  0)  ( 1  1  0)  ( 1  0  0)  ( 1  0  0)  ( 0  1  0)  ( 0  1  0)
  ( 0 -1  0)  ( 0 -1  0)  ( 0  1  0)  ( 0  1  0)  (-1 -1  0)  (-1 -1  0)
  ( 0  0  1)  ( 0  0 -1)  ( 0  0  1)  ( 0  0 -1)  ( 0  0  1)  ( 0  0 -1)

  ( 0 -1  0)  ( 0 -1  0)  (-1  0  0)  (-1  0  0)  (-1 -1  0)  (-1 -1  0)
  (-1  0  0)  (-1  0  0)  ( 1  1  0)  ( 1  1  0)  ( 1  0  0)  ( 1  0  0)
  ( 0  0  1)  ( 0  0 -1)  ( 0  0  1)  ( 0  0 -1)  ( 0  0  1)  ( 0  0 -1)
Note: your k-points are not as symmetric as your crystal!

4096 k-points: 16 x 16 x 16 Monkhorst-Pack grid
576 k-points in the irreducible part of the Brillouin zone
       k-points in crystal coordinates                weights
   0:     0.03125000   -0.03125000    0.03125000          4/4096
   1:     0.03125000   -0.03125000    0.09375000          4/4096
   2:     0.03125000   -0.03125000    0.15625000          4/4096
   3:     0.03125000   -0.03125000    0.21875000          4/4096
   4:     0.03125000   -0.03125000    0.28125000          4/4096
   5:     0.03125000   -0.03125000    0.34375000          4/4096
   6:     0.03125000   -0.03125000    0.40625000          4/4096
   7:     0.03125000   -0.03125000    0.46875000          4/4096
   8:     0.03125000    0.03125000    0.03125000          4/4096
   9:     0.03125000    0.03125000    0.09375000          4/4096
          ...
 575:     0.46875000    0.46875000    0.46875000          4/4096

Wave functions: LCAO
  Diagonalizer: Serial LAPACK
  Atomic Correction: dense with blas
  Datatype: complex
  Eigensolver: None

LCAO using direct dense diagonalizer

Densities:
  Coarse grid: 12*12*32 grid
  Fine grid: 24*24*64 grid
  Total Charge: 0.000000

Density mixing:
  Method: separate
  Backend: pulay
  Linear mixing parameter: 0.05
  Mixing with 5 old densities
  Damping of long wave oscillations: 50

Hamiltonian:
  XC and Coulomb potentials evaluated on a 24*24*64 grid
  Using the LDA Exchange-Correlation functional
  Interpolation: tri-quintic (5. degree polynomial)
  Poisson solver: Jacobi solver with 4 multi-grid levels
    Coarsest grid: 3 x 3 x 8 points
    Stencil: 8*3+1=25 point O(h^6) finite-difference Laplacian
    Tolerance: 2.000000e-10
    Max iterations: 1000

Total number of cores used: 1

Number of atoms: 2
Number of atomic orbitals: 26
Number of bands in calculation: 8
Bands to converge: occupied states only
Number of valence electrons: 8

... initialized

Initializing position-dependent things.

Density initialized from atomic densities

       CC

Positions:
   0 C      0.000000    0.000000    0.000000
   1 C      0.000000    1.420859    0.000000

Unit cell:
           periodic     x           y           z      points  spacing
  1. axis:    yes    2.461000    0.000000    0.000000    12     0.1776
  2. axis:    yes   -1.230500    2.131289    0.000000    12     0.1776
  3. axis:    yes    0.000000    0.000000    6.708000    32     0.2096

                     log10-error:    total        iterations:
           time      wfs    density  energy       fermi  poisson
iter:   1  08:15:36          +inf   -19.945429    1      15
iter:   2  08:16:27         -0.92   -19.896060    3      6
iter:   3  08:17:19         -0.94   -19.618147    27     9
iter:   4  08:18:10         -1.65   -19.651105    24     8
iter:   5  08:19:03         -1.52   -19.602807    20     7
iter:   6  08:19:53         -2.81   -19.602759    2      4
iter:   7  08:20:44         -3.02   -19.602632    2      4
iter:   8  08:21:35         -4.17   -19.602977    2      2

Converged after 8 iterations.

Energy contributions relative to reference atoms: (reference = -2037.605076)

Kinetic:        +13.897886
Potential:      -14.413615
External:        +0.000000
XC:             -19.361804
Entropy (-ST):   -0.000717
Local:           +0.274915
Free energy:    -19.603336
Extrapolated:   -19.602977

Fermi level: 0.75254

Warning: Showing only first 2 kpts
 Kpt  Band  Eigenvalues  Occupancy
  0     2     -2.49550    0.00195
  0     3     -2.45255    0.00195
  0     4      9.11139    0.00000
  0     5      9.19354    0.00000

  1     2     -2.49550    0.00195
  1     3     -2.45255    0.00195
  1     4      9.11139    0.00000
  1     5      9.19354    0.00000